100
128
8
20
4
50
16
50
37
44
49
52
59
11
33
63
48
43
38
28
3
31
62
31
61
53
42
44
21
56
3
32
2
2
24
49
19
3
3
13
18
24
18
24
33
3
21
27
28
38
3
38
31
27
32
2
24
31
23
50
35
7
63
2
43
42
6
46
57
4
56
2
24
60
8
37
55
47
47
2
43
63
40
60
15
39
28
1
46
52
10
47
52
29
38
4
36
33
2
32
44
6